data/lp_files/pEFS/88_5.lp
\ Model foo
\ LP format - for model browsing. Use MPS format to capture full model detail.
Minimize
  z
Subject To
 allocateEach[1]: x[1,1] + x[2,1] + x[3,1] + x[4,1] + x[5,1] = 1
 allocateEach[2]: x[1,2] + x[2,2] + x[3,2] + x[4,2] + x[5,2] = 1
 allocateEach[3]: x[1,3] + x[2,3] + x[3,3] + x[4,3] + x[5,3] = 1
 allocateEach[4]: x[1,4] + x[2,4] + x[3,4] + x[4,4] + x[5,4] = 1
 allocateEach[5]: x[1,5] + x[2,5] + x[3,5] + x[4,5] + x[5,5] = 1
 allocateEach[6]: x[1,6] + x[2,6] + x[3,6] + x[4,6] + x[5,6] = 1
 allocateEach[7]: x[1,7] + x[2,7] + x[3,7] + x[4,7] + x[5,7] = 1
 allocateEach[8]: x[1,8] + x[2,8] + x[3,8] + x[4,8] + x[5,8] = 1
 allocateAllCash: cashProportion[1] + cashProportion[2] + cashProportion[3]
   + cashProportion[4] + cashProportion[5] = 1
 findWorstP[1,2]: z + 0.0593061184145498 cashProportion[1]
   - 0.0593061184145498 cashProportion[2] + 0.1095779381239498 x[1,1]
   + 0.0427597113768904 x[1,2] + 0.1450034595235742 x[1,3]
   + 0.1656617574379757 x[1,4] + 0.1688049817139468 x[1,5]
   + 0.0280715627162202 x[1,6] + 0.184679252742908 x[1,7]
   + 0.0961352179499852 x[1,8] - 0.1095779381239498 x[2,1]
   - 0.0427597113768904 x[2,2] - 0.1450034595235742 x[2,3]
   - 0.1656617574379757 x[2,4] - 0.1688049817139468 x[2,5]
   - 0.0280715627162202 x[2,6] - 0.184679252742908 x[2,7]
   - 0.0961352179499852 x[2,8] >= 0
 findWorstP[1,3]: z + 0.0593061184145498 cashProportion[1]
   - 0.0593061184145498 cashProportion[3] + 0.1095779381239498 x[1,1]
   + 0.0427597113768904 x[1,2] + 0.1450034595235742 x[1,3]
   + 0.1656617574379757 x[1,4] + 0.1688049817139468 x[1,5]
   + 0.0280715627162202 x[1,6] + 0.184679252742908 x[1,7]
   + 0.0961352179499852 x[1,8] - 0.1095779381239498 x[3,1]
   - 0.0427597113768904 x[3,2] - 0.1450034595235742 x[3,3]
   - 0.1656617574379757 x[3,4] - 0.1688049817139468 x[3,5]
   - 0.0280715627162202 x[3,6] - 0.184679252742908 x[3,7]
   - 0.0961352179499852 x[3,8] >= 0
 findWorstP[1,4]: z + 0.0593061184145498 cashProportion[1]
   - 0.0593061184145498 cashProportion[4] + 0.1095779381239498 x[1,1]
   + 0.0427597113768904 x[1,2] + 0.1450034595235742 x[1,3]
   + 0.1656617574379757 x[1,4] + 0.1688049817139468 x[1,5]
   + 0.0280715627162202 x[1,6] + 0.184679252742908 x[1,7]
   + 0.0961352179499852 x[1,8] - 0.1095779381239498 x[4,1]
   - 0.0427597113768904 x[4,2] - 0.1450034595235742 x[4,3]
   - 0.1656617574379757 x[4,4] - 0.1688049817139468 x[4,5]
   - 0.0280715627162202 x[4,6] - 0.184679252742908 x[4,7]
   - 0.0961352179499852 x[4,8] >= 0
 findWorstP[1,5]: z + 0.0593061184145498 cashProportion[1]
   - 0.0593061184145498 cashProportion[5] + 0.1095779381239498 x[1,1]
   + 0.0427597113768904 x[1,2] + 0.1450034595235742 x[1,3]
   + 0.1656617574379757 x[1,4] + 0.1688049817139468 x[1,5]
   + 0.0280715627162202 x[1,6] + 0.184679252742908 x[1,7]
   + 0.0961352179499852 x[1,8] - 0.1095779381239498 x[5,1]
   - 0.0427597113768904 x[5,2] - 0.1450034595235742 x[5,3]
   - 0.1656617574379757 x[5,4] - 0.1688049817139468 x[5,5]
   - 0.0280715627162202 x[5,6] - 0.184679252742908 x[5,7]
   - 0.0961352179499852 x[5,8] >= 0
 findWorstP[2,1]: z - 0.0643832088591295 cashProportion[1]
   + 0.0643832088591295 cashProportion[2] - 0.1418362091166624 x[1,1]
   - 0.0819598248776719 x[1,2] - 0.1369001631041291 x[1,3]
   - 0.0124044982401923 x[1,4] - 0.0120396600566572 x[1,5]
   - 0.205253669842905 x[1,6] - 0.2142673190831831 x[1,7]
   - 0.1309554468194695 x[1,8] + 0.1418362091166624 x[2,1]
   + 0.0819598248776719 x[2,2] + 0.1369001631041291 x[2,3]
   + 0.0124044982401923 x[2,4] + 0.0120396600566572 x[2,5]
   + 0.205253669842905 x[2,6] + 0.2142673190831831 x[2,7]
   + 0.1309554468194695 x[2,8] >= 0
 findWorstP[2,3]: z + 0.0643832088591295 cashProportion[2]
   - 0.0643832088591295 cashProportion[3] + 0.1418362091166624 x[2,1]
   + 0.0819598248776719 x[2,2] + 0.1369001631041291 x[2,3]
   + 0.0124044982401923 x[2,4] + 0.0120396600566572 x[2,5]
   + 0.205253669842905 x[2,6] + 0.2142673190831831 x[2,7]
   + 0.1309554468194695 x[2,8] - 0.1418362091166624 x[3,1]
   - 0.0819598248776719 x[3,2] - 0.1369001631041291 x[3,3]
   - 0.0124044982401923 x[3,4] - 0.0120396600566572 x[3,5]
   - 0.205253669842905 x[3,6] - 0.2142673190831831 x[3,7]
   - 0.1309554468194695 x[3,8] >= 0
 findWorstP[2,4]: z + 0.0643832088591295 cashProportion[2]
   - 0.0643832088591295 cashProportion[4] + 0.1418362091166624 x[2,1]
   + 0.0819598248776719 x[2,2] + 0.1369001631041291 x[2,3]
   + 0.0124044982401923 x[2,4] + 0.0120396600566572 x[2,5]
   + 0.205253669842905 x[2,6] + 0.2142673190831831 x[2,7]
   + 0.1309554468194695 x[2,8] - 0.1418362091166624 x[4,1]
   - 0.0819598248776719 x[4,2] - 0.1369001631041291 x[4,3]
   - 0.0124044982401923 x[4,4] - 0.0120396600566572 x[4,5]
   - 0.205253669842905 x[4,6] - 0.2142673190831831 x[4,7]
   - 0.1309554468194695 x[4,8] >= 0
 findWorstP[2,5]: z + 0.0643832088591295 cashProportion[2]
   - 0.0643832088591295 cashProportion[5] + 0.1418362091166624 x[2,1]
   + 0.0819598248776719 x[2,2] + 0.1369001631041291 x[2,3]
   + 0.0124044982401923 x[2,4] + 0.0120396600566572 x[2,5]
   + 0.205253669842905 x[2,6] + 0.2142673190831831 x[2,7]
   + 0.1309554468194695 x[2,8] - 0.1418362091166624 x[5,1]
   - 0.0819598248776719 x[5,2] - 0.1369001631041291 x[5,3]
   - 0.0124044982401923 x[5,4] - 0.0120396600566572 x[5,5]
   - 0.205253669842905 x[5,6] - 0.2142673190831831 x[5,7]
   - 0.1309554468194695 x[5,8] >= 0
 findWorstP[3,1]: z - 0.0767656090071648 cashProportion[1]
   + 0.0767656090071648 cashProportion[3] - 0.1408137154554759 x[1,1]
   - 0.1134339815762538 x[1,2] - 0.1909160696008188 x[1,3]
   - 0.1745138178096213 x[1,4] - 0.0771750255885363 x[1,5]
   - 0.0943449334698055 x[1,6] - 0.0383572159672467 x[1,7]
   - 0.0936796315250768 x[1,8] + 0.1408137154554759 x[3,1]
   + 0.1134339815762538 x[3,2] + 0.1909160696008188 x[3,3]
   + 0.1745138178096213 x[3,4] + 0.0771750255885363 x[3,5]
   + 0.0943449334698055 x[3,6] + 0.0383572159672467 x[3,7]
   + 0.0936796315250768 x[3,8] >= 0
 findWorstP[3,2]: z - 0.0767656090071648 cashProportion[2]
   + 0.0767656090071648 cashProportion[3] - 0.1408137154554759 x[2,1]
   - 0.1134339815762538 x[2,2] - 0.1909160696008188 x[2,3]
   - 0.1745138178096213 x[2,4] - 0.0771750255885363 x[2,5]
   - 0.0943449334698055 x[2,6] - 0.0383572159672467 x[2,7]
   - 0.0936796315250768 x[2,8] + 0.1408137154554759 x[3,1]
   + 0.1134339815762538 x[3,2] + 0.1909160696008188 x[3,3]
   + 0.1745138178096213 x[3,4] + 0.0771750255885363 x[3,5]
   + 0.0943449334698055 x[3,6] + 0.0383572159672467 x[3,7]
   + 0.0936796315250768 x[3,8] >= 0
 findWorstP[3,4]: z + 0.0767656090071648 cashProportion[3]
   - 0.0767656090071648 cashProportion[4] + 0.1408137154554759 x[3,1]
   + 0.1134339815762538 x[3,2] + 0.1909160696008188 x[3,3]
   + 0.1745138178096213 x[3,4] + 0.0771750255885363 x[3,5]
   + 0.0943449334698055 x[3,6] + 0.0383572159672467 x[3,7]
   + 0.0936796315250768 x[3,8] - 0.1408137154554759 x[4,1]
   - 0.1134339815762538 x[4,2] - 0.1909160696008188 x[4,3]
   - 0.1745138178096213 x[4,4] - 0.0771750255885363 x[4,5]
   - 0.0943449334698055 x[4,6] - 0.0383572159672467 x[4,7]
   - 0.0936796315250768 x[4,8] >= 0
 findWorstP[3,5]: z + 0.0767656090071648 cashProportion[3]
   - 0.0767656090071648 cashProportion[5] + 0.1408137154554759 x[3,1]
   + 0.1134339815762538 x[3,2] + 0.1909160696008188 x[3,3]
   + 0.1745138178096213 x[3,4] + 0.0771750255885363 x[3,5]
   + 0.0943449334698055 x[3,6] + 0.0383572159672467 x[3,7]
   + 0.0936796315250768 x[3,8] - 0.1408137154554759 x[5,1]
   - 0.1134339815762538 x[5,2] - 0.1909160696008188 x[5,3]
   - 0.1745138178096213 x[5,4] - 0.0771750255885363 x[5,5]
   - 0.0943449334698055 x[5,6] - 0.0383572159672467 x[5,7]
   - 0.0936796315250768 x[5,8] >= 0
 findWorstP[4,1]: z - 0.0757556627357895 cashProportion[1]
   + 0.0757556627357895 cashProportion[4] - 0.0668922501957021 x[1,1]
   - 0.0245195828388172 x[1,2] - 0.1045933183505467 x[1,3]
   - 0.0762354485997828 x[1,4] - 0.2188076058685387 x[1,5]
   - 0.1063356985934698 x[1,6] - 0.1111588091209818 x[1,7]
   - 0.2157016236963713 x[1,8] + 0.0668922501957021 x[4,1]
   + 0.0245195828388172 x[4,2] + 0.1045933183505467 x[4,3]
   + 0.0762354485997828 x[4,4] + 0.2188076058685387 x[4,5]
   + 0.1063356985934698 x[4,6] + 0.1111588091209818 x[4,7]
   + 0.2157016236963713 x[4,8] >= 0
 findWorstP[4,2]: z - 0.0757556627357895 cashProportion[2]
   + 0.0757556627357895 cashProportion[4] - 0.0668922501957021 x[2,1]
   - 0.0245195828388172 x[2,2] - 0.1045933183505467 x[2,3]
   - 0.0762354485997828 x[2,4] - 0.2188076058685387 x[2,5]
   - 0.1063356985934698 x[2,6] - 0.1111588091209818 x[2,7]
   - 0.2157016236963713 x[2,8] + 0.0668922501957021 x[4,1]
   + 0.0245195828388172 x[4,2] + 0.1045933183505467 x[4,3]
   + 0.0762354485997828 x[4,4] + 0.2188076058685387 x[4,5]
   + 0.1063356985934698 x[4,6] + 0.1111588091209818 x[4,7]
   + 0.2157016236963713 x[4,8] >= 0
 findWorstP[4,3]: z - 0.0757556627357895 cashProportion[3]
   + 0.0757556627357895 cashProportion[4] - 0.0668922501957021 x[3,1]
   - 0.0245195828388172 x[3,2] - 0.1045933183505467 x[3,3]
   - 0.0762354485997828 x[3,4] - 0.2188076058685387 x[3,5]
   - 0.1063356985934698 x[3,6] - 0.1111588091209818 x[3,7]
   - 0.2157016236963713 x[3,8] + 0.0668922501957021 x[4,1]
   + 0.0245195828388172 x[4,2] + 0.1045933183505467 x[4,3]
   + 0.0762354485997828 x[4,4] + 0.2188076058685387 x[4,5]
   + 0.1063356985934698 x[4,6] + 0.1111588091209818 x[4,7]
   + 0.2157016236963713 x[4,8] >= 0
 findWorstP[4,5]: z + 0.0757556627357895 cashProportion[4]
   - 0.0757556627357895 cashProportion[5] + 0.0668922501957021 x[4,1]
   + 0.0245195828388172 x[4,2] + 0.1045933183505467 x[4,3]
   + 0.0762354485997828 x[4,4] + 0.2188076058685387 x[4,5]
   + 0.1063356985934698 x[4,6] + 0.1111588091209818 x[4,7]
   + 0.2157016236963713 x[4,8] - 0.0668922501957021 x[5,1]
   - 0.0245195828388172 x[5,2] - 0.1045933183505467 x[5,3]
   - 0.0762354485997828 x[5,4] - 0.2188076058685387 x[5,5]
   - 0.1063356985934698 x[5,6] - 0.1111588091209818 x[5,7]
   - 0.2157016236963713 x[5,8] >= 0
 findWorstP[5,1]: z - 0.0602083207899332 cashProportion[1]
   + 0.0602083207899332 cashProportion[5] - 0.0885263010014651 x[1,1]
   - 0.1139743512553435 x[1,2] - 0.1826519758363939 x[1,3]
   - 0.1175667810624762 x[1,4] - 0.06309832018785 x[1,5]
   - 0.16523170168784 x[1,6] - 0.1921849599614667 x[1,7]
   - 0.0165572882172316 x[1,8] + 0.0885263010014651 x[5,1]
   + 0.1139743512553435 x[5,2] + 0.1826519758363939 x[5,3]
   + 0.1175667810624762 x[5,4] + 0.06309832018785 x[5,5]
   + 0.16523170168784 x[5,6] + 0.1921849599614667 x[5,7]
   + 0.0165572882172316 x[5,8] >= 0
 findWorstP[5,2]: z - 0.0602083207899332 cashProportion[2]
   + 0.0602083207899332 cashProportion[5] - 0.0885263010014651 x[2,1]
   - 0.1139743512553435 x[2,2] - 0.1826519758363939 x[2,3]
   - 0.1175667810624762 x[2,4] - 0.06309832018785 x[2,5]
   - 0.16523170168784 x[2,6] - 0.1921849599614667 x[2,7]
   - 0.0165572882172316 x[2,8] + 0.0885263010014651 x[5,1]
   + 0.1139743512553435 x[5,2] + 0.1826519758363939 x[5,3]
   + 0.1175667810624762 x[5,4] + 0.06309832018785 x[5,5]
   + 0.16523170168784 x[5,6] + 0.1921849599614667 x[5,7]
   + 0.0165572882172316 x[5,8] >= 0
 findWorstP[5,3]: z - 0.0602083207899332 cashProportion[3]
   + 0.0602083207899332 cashProportion[5] - 0.0885263010014651 x[3,1]
   - 0.1139743512553435 x[3,2] - 0.1826519758363939 x[3,3]
   - 0.1175667810624762 x[3,4] - 0.06309832018785 x[3,5]
   - 0.16523170168784 x[3,6] - 0.1921849599614667 x[3,7]
   - 0.0165572882172316 x[3,8] + 0.0885263010014651 x[5,1]
   + 0.1139743512553435 x[5,2] + 0.1826519758363939 x[5,3]
   + 0.1175667810624762 x[5,4] + 0.06309832018785 x[5,5]
   + 0.16523170168784 x[5,6] + 0.1921849599614667 x[5,7]
   + 0.0165572882172316 x[5,8] >= 0
 findWorstP[5,4]: z - 0.0602083207899332 cashProportion[4]
   + 0.0602083207899332 cashProportion[5] - 0.0885263010014651 x[4,1]
   - 0.1139743512553435 x[4,2] - 0.1826519758363939 x[4,3]
   - 0.1175667810624762 x[4,4] - 0.06309832018785 x[4,5]
   - 0.16523170168784 x[4,6] - 0.1921849599614667 x[4,7]
   - 0.0165572882172316 x[4,8] + 0.0885263010014651 x[5,1]
   + 0.1139743512553435 x[5,2] + 0.1826519758363939 x[5,3]
   + 0.1175667810624762 x[5,4] + 0.06309832018785 x[5,5]
   + 0.16523170168784 x[5,6] + 0.1921849599614667 x[5,7]
   + 0.0165572882172316 x[5,8] >= 0
Bounds
 z <= 1
 -infinity <= cashProportion[1] <= 1
 -infinity <= cashProportion[2] <= 1
 -infinity <= cashProportion[3] <= 1
 -infinity <= cashProportion[4] <= 1
 -infinity <= cashProportion[5] <= 1
Binaries
 x[1,1] x[1,2] x[1,3] x[1,4] x[1,5] x[1,6] x[1,7] x[1,8] x[2,1] x[2,2]
 x[2,3] x[2,4] x[2,5] x[2,6] x[2,7] x[2,8] x[3,1] x[3,2] x[3,3] x[3,4]
 x[3,5] x[3,6] x[3,7] x[3,8] x[4,1] x[4,2] x[4,3] x[4,4] x[4,5] x[4,6]
 x[4,7] x[4,8] x[5,1] x[5,2] x[5,3] x[5,4] x[5,5] x[5,6] x[5,7] x[5,8]
End
