data/mps_files/pEFS/88_5.mps
NAME foo
ROWS
 N  OBJ
 E  allocateEach[1]
 E  allocateEach[2]
 E  allocateEach[3]
 E  allocateEach[4]
 E  allocateEach[5]
 E  allocateEach[6]
 E  allocateEach[7]
 E  allocateEach[8]
 E  allocateAllCash
 G  findWorstP[1,2]
 G  findWorstP[1,3]
 G  findWorstP[1,4]
 G  findWorstP[1,5]
 G  findWorstP[2,1]
 G  findWorstP[2,3]
 G  findWorstP[2,4]
 G  findWorstP[2,5]
 G  findWorstP[3,1]
 G  findWorstP[3,2]
 G  findWorstP[3,4]
 G  findWorstP[3,5]
 G  findWorstP[4,1]
 G  findWorstP[4,2]
 G  findWorstP[4,3]
 G  findWorstP[4,5]
 G  findWorstP[5,1]
 G  findWorstP[5,2]
 G  findWorstP[5,3]
 G  findWorstP[5,4]
COLUMNS
    z         OBJ       1
    z         findWorstP[1,2]  1
    z         findWorstP[1,3]  1
    z         findWorstP[1,4]  1
    z         findWorstP[1,5]  1
    z         findWorstP[2,1]  1
    z         findWorstP[2,3]  1
    z         findWorstP[2,4]  1
    z         findWorstP[2,5]  1
    z         findWorstP[3,1]  1
    z         findWorstP[3,2]  1
    z         findWorstP[3,4]  1
    z         findWorstP[3,5]  1
    z         findWorstP[4,1]  1
    z         findWorstP[4,2]  1
    z         findWorstP[4,3]  1
    z         findWorstP[4,5]  1
    z         findWorstP[5,1]  1
    z         findWorstP[5,2]  1
    z         findWorstP[5,3]  1
    z         findWorstP[5,4]  1
    cashProportion[1]  allocateAllCash  1
    cashProportion[1]  findWorstP[1,2]  5.9306118414549767e-02
    cashProportion[1]  findWorstP[1,3]  5.9306118414549767e-02
    cashProportion[1]  findWorstP[1,4]  5.9306118414549767e-02
    cashProportion[1]  findWorstP[1,5]  5.9306118414549767e-02
    cashProportion[1]  findWorstP[2,1]  -6.4383208859129543e-02
    cashProportion[1]  findWorstP[3,1]  -7.6765609007164781e-02
    cashProportion[1]  findWorstP[4,1]  -0.0757556627357895
    cashProportion[1]  findWorstP[5,1]  -6.0208320789933170e-02
    cashProportion[2]  allocateAllCash  1
    cashProportion[2]  findWorstP[1,2]  -5.9306118414549767e-02
    cashProportion[2]  findWorstP[2,1]  6.4383208859129543e-02
    cashProportion[2]  findWorstP[2,3]  6.4383208859129543e-02
    cashProportion[2]  findWorstP[2,4]  6.4383208859129543e-02
    cashProportion[2]  findWorstP[2,5]  6.4383208859129543e-02
    cashProportion[2]  findWorstP[3,2]  -7.6765609007164781e-02
    cashProportion[2]  findWorstP[4,2]  -0.0757556627357895
    cashProportion[2]  findWorstP[5,2]  -6.0208320789933170e-02
    cashProportion[3]  allocateAllCash  1
    cashProportion[3]  findWorstP[1,3]  -5.9306118414549767e-02
    cashProportion[3]  findWorstP[2,3]  -6.4383208859129543e-02
    cashProportion[3]  findWorstP[3,1]  7.6765609007164781e-02
    cashProportion[3]  findWorstP[3,2]  7.6765609007164781e-02
    cashProportion[3]  findWorstP[3,4]  7.6765609007164781e-02
    cashProportion[3]  findWorstP[3,5]  7.6765609007164781e-02
    cashProportion[3]  findWorstP[4,3]  -0.0757556627357895
    cashProportion[3]  findWorstP[5,3]  -6.0208320789933170e-02
    cashProportion[4]  allocateAllCash  1
    cashProportion[4]  findWorstP[1,4]  -5.9306118414549767e-02
    cashProportion[4]  findWorstP[2,4]  -6.4383208859129543e-02
    cashProportion[4]  findWorstP[3,4]  -7.6765609007164781e-02
    cashProportion[4]  findWorstP[4,1]  0.0757556627357895
    cashProportion[4]  findWorstP[4,2]  0.0757556627357895
    cashProportion[4]  findWorstP[4,3]  0.0757556627357895
    cashProportion[4]  findWorstP[4,5]  0.0757556627357895
    cashProportion[4]  findWorstP[5,4]  -6.0208320789933170e-02
    cashProportion[5]  allocateAllCash  1
    cashProportion[5]  findWorstP[1,5]  -5.9306118414549767e-02
    cashProportion[5]  findWorstP[2,5]  -6.4383208859129543e-02
    cashProportion[5]  findWorstP[3,5]  -7.6765609007164781e-02
    cashProportion[5]  findWorstP[4,5]  -0.0757556627357895
    cashProportion[5]  findWorstP[5,1]  6.0208320789933170e-02
    cashProportion[5]  findWorstP[5,2]  6.0208320789933170e-02
    cashProportion[5]  findWorstP[5,3]  6.0208320789933170e-02
    cashProportion[5]  findWorstP[5,4]  6.0208320789933170e-02
    MARKER    'MARKER'                 'INTORG'
    x[1,1]    allocateEach[1]  1
    x[1,1]    findWorstP[1,2]  1.0957793812394979e-01
    x[1,1]    findWorstP[1,3]  1.0957793812394979e-01
    x[1,1]    findWorstP[1,4]  1.0957793812394979e-01
    x[1,1]    findWorstP[1,5]  1.0957793812394979e-01
    x[1,1]    findWorstP[2,1]  -1.4183620911666239e-01
    x[1,1]    findWorstP[3,1]  -1.4081371545547594e-01
    x[1,1]    findWorstP[4,1]  -6.6892250195702135e-02
    x[1,1]    findWorstP[5,1]  -8.8526301001465080e-02
    x[1,2]    allocateEach[2]  1
    x[1,2]    findWorstP[1,2]  4.2759711376890379e-02
    x[1,2]    findWorstP[1,3]  4.2759711376890379e-02
    x[1,2]    findWorstP[1,4]  4.2759711376890379e-02
    x[1,2]    findWorstP[1,5]  4.2759711376890379e-02
    x[1,2]    findWorstP[2,1]  -8.1959824877671908e-02
    x[1,2]    findWorstP[3,1]  -1.1343398157625384e-01
    x[1,2]    findWorstP[4,1]  -0.0245195828388172
    x[1,2]    findWorstP[5,1]  -1.1397435125534350e-01
    x[1,3]    allocateEach[3]  1
    x[1,3]    findWorstP[1,2]  1.4500345952357419e-01
    x[1,3]    findWorstP[1,3]  1.4500345952357419e-01
    x[1,3]    findWorstP[1,4]  1.4500345952357419e-01
    x[1,3]    findWorstP[1,5]  1.4500345952357419e-01
    x[1,3]    findWorstP[2,1]  -1.3690016310412911e-01
    x[1,3]    findWorstP[3,1]  -1.9091606960081883e-01
    x[1,3]    findWorstP[4,1]  -1.0459331835054671e-01
    x[1,3]    findWorstP[5,1]  -1.8265197583639395e-01
    x[1,4]    allocateEach[4]  1
    x[1,4]    findWorstP[1,2]  1.6566175743797568e-01
    x[1,4]    findWorstP[1,3]  1.6566175743797568e-01
    x[1,4]    findWorstP[1,4]  1.6566175743797568e-01
    x[1,4]    findWorstP[1,5]  1.6566175743797568e-01
    x[1,4]    findWorstP[2,1]  -1.2404498240192291e-02
    x[1,4]    findWorstP[3,1]  -1.7451381780962130e-01
    x[1,4]    findWorstP[4,1]  -7.6235448599782832e-02
    x[1,4]    findWorstP[5,1]  -1.1756678106247617e-01
    x[1,5]    allocateEach[5]  1
    x[1,5]    findWorstP[1,2]  1.6880498171394681e-01
    x[1,5]    findWorstP[1,3]  1.6880498171394681e-01
    x[1,5]    findWorstP[1,4]  1.6880498171394681e-01
    x[1,5]    findWorstP[1,5]  1.6880498171394681e-01
    x[1,5]    findWorstP[2,1]  -1.2039660056657223e-02
    x[1,5]    findWorstP[3,1]  -7.7175025588536325e-02
    x[1,5]    findWorstP[4,1]  -2.1880760586853867e-01
    x[1,5]    findWorstP[5,1]  -6.3098320187849971e-02
    x[1,6]    allocateEach[6]  1
    x[1,6]    findWorstP[1,2]  2.8071562716220220e-02
    x[1,6]    findWorstP[1,3]  2.8071562716220220e-02
    x[1,6]    findWorstP[1,4]  2.8071562716220220e-02
    x[1,6]    findWorstP[1,5]  2.8071562716220220e-02
    x[1,6]    findWorstP[2,1]  -2.0525366984290497e-01
    x[1,6]    findWorstP[3,1]  -9.4344933469805534e-02
    x[1,6]    findWorstP[4,1]  -1.0633569859346985e-01
    x[1,6]    findWorstP[5,1]  -1.6523170168783996e-01
    x[1,7]    allocateEach[7]  1
    x[1,7]    findWorstP[1,2]  1.8467925274290797e-01
    x[1,7]    findWorstP[1,3]  1.8467925274290797e-01
    x[1,7]    findWorstP[1,4]  1.8467925274290797e-01
    x[1,7]    findWorstP[1,5]  1.8467925274290797e-01
    x[1,7]    findWorstP[2,1]  -2.1426731908318311e-01
    x[1,7]    findWorstP[3,1]  -3.8357215967246672e-02
    x[1,7]    findWorstP[4,1]  -1.1115880912098178e-01
    x[1,7]    findWorstP[5,1]  -1.9218495996146670e-01
    x[1,8]    allocateEach[8]  1
    x[1,8]    findWorstP[1,2]  9.6135217949985183e-02
    x[1,8]    findWorstP[1,3]  9.6135217949985183e-02
    x[1,8]    findWorstP[1,4]  9.6135217949985183e-02
    x[1,8]    findWorstP[1,5]  9.6135217949985183e-02
    x[1,8]    findWorstP[2,1]  -1.3095544681946947e-01
    x[1,8]    findWorstP[3,1]  -9.3679631525076759e-02
    x[1,8]    findWorstP[4,1]  -2.1570162369637128e-01
    x[1,8]    findWorstP[5,1]  -1.6557288217231625e-02
    x[2,1]    allocateEach[1]  1
    x[2,1]    findWorstP[1,2]  -1.0957793812394979e-01
    x[2,1]    findWorstP[2,1]  1.4183620911666239e-01
    x[2,1]    findWorstP[2,3]  1.4183620911666239e-01
    x[2,1]    findWorstP[2,4]  1.4183620911666239e-01
    x[2,1]    findWorstP[2,5]  1.4183620911666239e-01
    x[2,1]    findWorstP[3,2]  -1.4081371545547594e-01
    x[2,1]    findWorstP[4,2]  -6.6892250195702135e-02
    x[2,1]    findWorstP[5,2]  -8.8526301001465080e-02
    x[2,2]    allocateEach[2]  1
    x[2,2]    findWorstP[1,2]  -4.2759711376890379e-02
    x[2,2]    findWorstP[2,1]  8.1959824877671908e-02
    x[2,2]    findWorstP[2,3]  8.1959824877671908e-02
    x[2,2]    findWorstP[2,4]  8.1959824877671908e-02
    x[2,2]    findWorstP[2,5]  8.1959824877671908e-02
    x[2,2]    findWorstP[3,2]  -1.1343398157625384e-01
    x[2,2]    findWorstP[4,2]  -0.0245195828388172
    x[2,2]    findWorstP[5,2]  -1.1397435125534350e-01
    x[2,3]    allocateEach[3]  1
    x[2,3]    findWorstP[1,2]  -1.4500345952357419e-01
    x[2,3]    findWorstP[2,1]  1.3690016310412911e-01
    x[2,3]    findWorstP[2,3]  1.3690016310412911e-01
    x[2,3]    findWorstP[2,4]  1.3690016310412911e-01
    x[2,3]    findWorstP[2,5]  1.3690016310412911e-01
    x[2,3]    findWorstP[3,2]  -1.9091606960081883e-01
    x[2,3]    findWorstP[4,2]  -1.0459331835054671e-01
    x[2,3]    findWorstP[5,2]  -1.8265197583639395e-01
    x[2,4]    allocateEach[4]  1
    x[2,4]    findWorstP[1,2]  -1.6566175743797568e-01
    x[2,4]    findWorstP[2,1]  1.2404498240192291e-02
    x[2,4]    findWorstP[2,3]  1.2404498240192291e-02
    x[2,4]    findWorstP[2,4]  1.2404498240192291e-02
    x[2,4]    findWorstP[2,5]  1.2404498240192291e-02
    x[2,4]    findWorstP[3,2]  -1.7451381780962130e-01
    x[2,4]    findWorstP[4,2]  -7.6235448599782832e-02
    x[2,4]    findWorstP[5,2]  -1.1756678106247617e-01
    x[2,5]    allocateEach[5]  1
    x[2,5]    findWorstP[1,2]  -1.6880498171394681e-01
    x[2,5]    findWorstP[2,1]  1.2039660056657223e-02
    x[2,5]    findWorstP[2,3]  1.2039660056657223e-02
    x[2,5]    findWorstP[2,4]  1.2039660056657223e-02
    x[2,5]    findWorstP[2,5]  1.2039660056657223e-02
    x[2,5]    findWorstP[3,2]  -7.7175025588536325e-02
    x[2,5]    findWorstP[4,2]  -2.1880760586853867e-01
    x[2,5]    findWorstP[5,2]  -6.3098320187849971e-02
    x[2,6]    allocateEach[6]  1
    x[2,6]    findWorstP[1,2]  -2.8071562716220220e-02
    x[2,6]    findWorstP[2,1]  2.0525366984290497e-01
    x[2,6]    findWorstP[2,3]  2.0525366984290497e-01
    x[2,6]    findWorstP[2,4]  2.0525366984290497e-01
    x[2,6]    findWorstP[2,5]  2.0525366984290497e-01
    x[2,6]    findWorstP[3,2]  -9.4344933469805534e-02
    x[2,6]    findWorstP[4,2]  -1.0633569859346985e-01
    x[2,6]    findWorstP[5,2]  -1.6523170168783996e-01
    x[2,7]    allocateEach[7]  1
    x[2,7]    findWorstP[1,2]  -1.8467925274290797e-01
    x[2,7]    findWorstP[2,1]  2.1426731908318311e-01
    x[2,7]    findWorstP[2,3]  2.1426731908318311e-01
    x[2,7]    findWorstP[2,4]  2.1426731908318311e-01
    x[2,7]    findWorstP[2,5]  2.1426731908318311e-01
    x[2,7]    findWorstP[3,2]  -3.8357215967246672e-02
    x[2,7]    findWorstP[4,2]  -1.1115880912098178e-01
    x[2,7]    findWorstP[5,2]  -1.9218495996146670e-01
    x[2,8]    allocateEach[8]  1
    x[2,8]    findWorstP[1,2]  -9.6135217949985183e-02
    x[2,8]    findWorstP[2,1]  1.3095544681946947e-01
    x[2,8]    findWorstP[2,3]  1.3095544681946947e-01
    x[2,8]    findWorstP[2,4]  1.3095544681946947e-01
    x[2,8]    findWorstP[2,5]  1.3095544681946947e-01
    x[2,8]    findWorstP[3,2]  -9.3679631525076759e-02
    x[2,8]    findWorstP[4,2]  -2.1570162369637128e-01
    x[2,8]    findWorstP[5,2]  -1.6557288217231625e-02
    x[3,1]    allocateEach[1]  1
    x[3,1]    findWorstP[1,3]  -1.0957793812394979e-01
    x[3,1]    findWorstP[2,3]  -1.4183620911666239e-01
    x[3,1]    findWorstP[3,1]  1.4081371545547594e-01
    x[3,1]    findWorstP[3,2]  1.4081371545547594e-01
    x[3,1]    findWorstP[3,4]  1.4081371545547594e-01
    x[3,1]    findWorstP[3,5]  1.4081371545547594e-01
    x[3,1]    findWorstP[4,3]  -6.6892250195702135e-02
    x[3,1]    findWorstP[5,3]  -8.8526301001465080e-02
    x[3,2]    allocateEach[2]  1
    x[3,2]    findWorstP[1,3]  -4.2759711376890379e-02
    x[3,2]    findWorstP[2,3]  -8.1959824877671908e-02
    x[3,2]    findWorstP[3,1]  1.1343398157625384e-01
    x[3,2]    findWorstP[3,2]  1.1343398157625384e-01
    x[3,2]    findWorstP[3,4]  1.1343398157625384e-01
    x[3,2]    findWorstP[3,5]  1.1343398157625384e-01
    x[3,2]    findWorstP[4,3]  -0.0245195828388172
    x[3,2]    findWorstP[5,3]  -1.1397435125534350e-01
    x[3,3]    allocateEach[3]  1
    x[3,3]    findWorstP[1,3]  -1.4500345952357419e-01
    x[3,3]    findWorstP[2,3]  -1.3690016310412911e-01
    x[3,3]    findWorstP[3,1]  1.9091606960081883e-01
    x[3,3]    findWorstP[3,2]  1.9091606960081883e-01
    x[3,3]    findWorstP[3,4]  1.9091606960081883e-01
    x[3,3]    findWorstP[3,5]  1.9091606960081883e-01
    x[3,3]    findWorstP[4,3]  -1.0459331835054671e-01
    x[3,3]    findWorstP[5,3]  -1.8265197583639395e-01
    x[3,4]    allocateEach[4]  1
    x[3,4]    findWorstP[1,3]  -1.6566175743797568e-01
    x[3,4]    findWorstP[2,3]  -1.2404498240192291e-02
    x[3,4]    findWorstP[3,1]  1.7451381780962130e-01
    x[3,4]    findWorstP[3,2]  1.7451381780962130e-01
    x[3,4]    findWorstP[3,4]  1.7451381780962130e-01
    x[3,4]    findWorstP[3,5]  1.7451381780962130e-01
    x[3,4]    findWorstP[4,3]  -7.6235448599782832e-02
    x[3,4]    findWorstP[5,3]  -1.1756678106247617e-01
    x[3,5]    allocateEach[5]  1
    x[3,5]    findWorstP[1,3]  -1.6880498171394681e-01
    x[3,5]    findWorstP[2,3]  -1.2039660056657223e-02
    x[3,5]    findWorstP[3,1]  7.7175025588536325e-02
    x[3,5]    findWorstP[3,2]  7.7175025588536325e-02
    x[3,5]    findWorstP[3,4]  7.7175025588536325e-02
    x[3,5]    findWorstP[3,5]  7.7175025588536325e-02
    x[3,5]    findWorstP[4,3]  -2.1880760586853867e-01
    x[3,5]    findWorstP[5,3]  -6.3098320187849971e-02
    x[3,6]    allocateEach[6]  1
    x[3,6]    findWorstP[1,3]  -2.8071562716220220e-02
    x[3,6]    findWorstP[2,3]  -2.0525366984290497e-01
    x[3,6]    findWorstP[3,1]  9.4344933469805534e-02
    x[3,6]    findWorstP[3,2]  9.4344933469805534e-02
    x[3,6]    findWorstP[3,4]  9.4344933469805534e-02
    x[3,6]    findWorstP[3,5]  9.4344933469805534e-02
    x[3,6]    findWorstP[4,3]  -1.0633569859346985e-01
    x[3,6]    findWorstP[5,3]  -1.6523170168783996e-01
    x[3,7]    allocateEach[7]  1
    x[3,7]    findWorstP[1,3]  -1.8467925274290797e-01
    x[3,7]    findWorstP[2,3]  -2.1426731908318311e-01
    x[3,7]    findWorstP[3,1]  3.8357215967246672e-02
    x[3,7]    findWorstP[3,2]  3.8357215967246672e-02
    x[3,7]    findWorstP[3,4]  3.8357215967246672e-02
    x[3,7]    findWorstP[3,5]  3.8357215967246672e-02
    x[3,7]    findWorstP[4,3]  -1.1115880912098178e-01
    x[3,7]    findWorstP[5,3]  -1.9218495996146670e-01
    x[3,8]    allocateEach[8]  1
    x[3,8]    findWorstP[1,3]  -9.6135217949985183e-02
    x[3,8]    findWorstP[2,3]  -1.3095544681946947e-01
    x[3,8]    findWorstP[3,1]  9.3679631525076759e-02
    x[3,8]    findWorstP[3,2]  9.3679631525076759e-02
    x[3,8]    findWorstP[3,4]  9.3679631525076759e-02
    x[3,8]    findWorstP[3,5]  9.3679631525076759e-02
    x[3,8]    findWorstP[4,3]  -2.1570162369637128e-01
    x[3,8]    findWorstP[5,3]  -1.6557288217231625e-02
    x[4,1]    allocateEach[1]  1
    x[4,1]    findWorstP[1,4]  -1.0957793812394979e-01
    x[4,1]    findWorstP[2,4]  -1.4183620911666239e-01
    x[4,1]    findWorstP[3,4]  -1.4081371545547594e-01
    x[4,1]    findWorstP[4,1]  6.6892250195702135e-02
    x[4,1]    findWorstP[4,2]  6.6892250195702135e-02
    x[4,1]    findWorstP[4,3]  6.6892250195702135e-02
    x[4,1]    findWorstP[4,5]  6.6892250195702135e-02
    x[4,1]    findWorstP[5,4]  -8.8526301001465080e-02
    x[4,2]    allocateEach[2]  1
    x[4,2]    findWorstP[1,4]  -4.2759711376890379e-02
    x[4,2]    findWorstP[2,4]  -8.1959824877671908e-02
    x[4,2]    findWorstP[3,4]  -1.1343398157625384e-01
    x[4,2]    findWorstP[4,1]  0.0245195828388172
    x[4,2]    findWorstP[4,2]  0.0245195828388172
    x[4,2]    findWorstP[4,3]  0.0245195828388172
    x[4,2]    findWorstP[4,5]  0.0245195828388172
    x[4,2]    findWorstP[5,4]  -1.1397435125534350e-01
    x[4,3]    allocateEach[3]  1
    x[4,3]    findWorstP[1,4]  -1.4500345952357419e-01
    x[4,3]    findWorstP[2,4]  -1.3690016310412911e-01
    x[4,3]    findWorstP[3,4]  -1.9091606960081883e-01
    x[4,3]    findWorstP[4,1]  1.0459331835054671e-01
    x[4,3]    findWorstP[4,2]  1.0459331835054671e-01
    x[4,3]    findWorstP[4,3]  1.0459331835054671e-01
    x[4,3]    findWorstP[4,5]  1.0459331835054671e-01
    x[4,3]    findWorstP[5,4]  -1.8265197583639395e-01
    x[4,4]    allocateEach[4]  1
    x[4,4]    findWorstP[1,4]  -1.6566175743797568e-01
    x[4,4]    findWorstP[2,4]  -1.2404498240192291e-02
    x[4,4]    findWorstP[3,4]  -1.7451381780962130e-01
    x[4,4]    findWorstP[4,1]  7.6235448599782832e-02
    x[4,4]    findWorstP[4,2]  7.6235448599782832e-02
    x[4,4]    findWorstP[4,3]  7.6235448599782832e-02
    x[4,4]    findWorstP[4,5]  7.6235448599782832e-02
    x[4,4]    findWorstP[5,4]  -1.1756678106247617e-01
    x[4,5]    allocateEach[5]  1
    x[4,5]    findWorstP[1,4]  -1.6880498171394681e-01
    x[4,5]    findWorstP[2,4]  -1.2039660056657223e-02
    x[4,5]    findWorstP[3,4]  -7.7175025588536325e-02
    x[4,5]    findWorstP[4,1]  2.1880760586853867e-01
    x[4,5]    findWorstP[4,2]  2.1880760586853867e-01
    x[4,5]    findWorstP[4,3]  2.1880760586853867e-01
    x[4,5]    findWorstP[4,5]  2.1880760586853867e-01
    x[4,5]    findWorstP[5,4]  -6.3098320187849971e-02
    x[4,6]    allocateEach[6]  1
    x[4,6]    findWorstP[1,4]  -2.8071562716220220e-02
    x[4,6]    findWorstP[2,4]  -2.0525366984290497e-01
    x[4,6]    findWorstP[3,4]  -9.4344933469805534e-02
    x[4,6]    findWorstP[4,1]  1.0633569859346985e-01
    x[4,6]    findWorstP[4,2]  1.0633569859346985e-01
    x[4,6]    findWorstP[4,3]  1.0633569859346985e-01
    x[4,6]    findWorstP[4,5]  1.0633569859346985e-01
    x[4,6]    findWorstP[5,4]  -1.6523170168783996e-01
    x[4,7]    allocateEach[7]  1
    x[4,7]    findWorstP[1,4]  -1.8467925274290797e-01
    x[4,7]    findWorstP[2,4]  -2.1426731908318311e-01
    x[4,7]    findWorstP[3,4]  -3.8357215967246672e-02
    x[4,7]    findWorstP[4,1]  1.1115880912098178e-01
    x[4,7]    findWorstP[4,2]  1.1115880912098178e-01
    x[4,7]    findWorstP[4,3]  1.1115880912098178e-01
    x[4,7]    findWorstP[4,5]  1.1115880912098178e-01
    x[4,7]    findWorstP[5,4]  -1.9218495996146670e-01
    x[4,8]    allocateEach[8]  1
    x[4,8]    findWorstP[1,4]  -9.6135217949985183e-02
    x[4,8]    findWorstP[2,4]  -1.3095544681946947e-01
    x[4,8]    findWorstP[3,4]  -9.3679631525076759e-02
    x[4,8]    findWorstP[4,1]  2.1570162369637128e-01
    x[4,8]    findWorstP[4,2]  2.1570162369637128e-01
    x[4,8]    findWorstP[4,3]  2.1570162369637128e-01
    x[4,8]    findWorstP[4,5]  2.1570162369637128e-01
    x[4,8]    findWorstP[5,4]  -1.6557288217231625e-02
    x[5,1]    allocateEach[1]  1
    x[5,1]    findWorstP[1,5]  -1.0957793812394979e-01
    x[5,1]    findWorstP[2,5]  -1.4183620911666239e-01
    x[5,1]    findWorstP[3,5]  -1.4081371545547594e-01
    x[5,1]    findWorstP[4,5]  -6.6892250195702135e-02
    x[5,1]    findWorstP[5,1]  8.8526301001465080e-02
    x[5,1]    findWorstP[5,2]  8.8526301001465080e-02
    x[5,1]    findWorstP[5,3]  8.8526301001465080e-02
    x[5,1]    findWorstP[5,4]  8.8526301001465080e-02
    x[5,2]    allocateEach[2]  1
    x[5,2]    findWorstP[1,5]  -4.2759711376890379e-02
    x[5,2]    findWorstP[2,5]  -8.1959824877671908e-02
    x[5,2]    findWorstP[3,5]  -1.1343398157625384e-01
    x[5,2]    findWorstP[4,5]  -0.0245195828388172
    x[5,2]    findWorstP[5,1]  1.1397435125534350e-01
    x[5,2]    findWorstP[5,2]  1.1397435125534350e-01
    x[5,2]    findWorstP[5,3]  1.1397435125534350e-01
    x[5,2]    findWorstP[5,4]  1.1397435125534350e-01
    x[5,3]    allocateEach[3]  1
    x[5,3]    findWorstP[1,5]  -1.4500345952357419e-01
    x[5,3]    findWorstP[2,5]  -1.3690016310412911e-01
    x[5,3]    findWorstP[3,5]  -1.9091606960081883e-01
    x[5,3]    findWorstP[4,5]  -1.0459331835054671e-01
    x[5,3]    findWorstP[5,1]  1.8265197583639395e-01
    x[5,3]    findWorstP[5,2]  1.8265197583639395e-01
    x[5,3]    findWorstP[5,3]  1.8265197583639395e-01
    x[5,3]    findWorstP[5,4]  1.8265197583639395e-01
    x[5,4]    allocateEach[4]  1
    x[5,4]    findWorstP[1,5]  -1.6566175743797568e-01
    x[5,4]    findWorstP[2,5]  -1.2404498240192291e-02
    x[5,4]    findWorstP[3,5]  -1.7451381780962130e-01
    x[5,4]    findWorstP[4,5]  -7.6235448599782832e-02
    x[5,4]    findWorstP[5,1]  1.1756678106247617e-01
    x[5,4]    findWorstP[5,2]  1.1756678106247617e-01
    x[5,4]    findWorstP[5,3]  1.1756678106247617e-01
    x[5,4]    findWorstP[5,4]  1.1756678106247617e-01
    x[5,5]    allocateEach[5]  1
    x[5,5]    findWorstP[1,5]  -1.6880498171394681e-01
    x[5,5]    findWorstP[2,5]  -1.2039660056657223e-02
    x[5,5]    findWorstP[3,5]  -7.7175025588536325e-02
    x[5,5]    findWorstP[4,5]  -2.1880760586853867e-01
    x[5,5]    findWorstP[5,1]  6.3098320187849971e-02
    x[5,5]    findWorstP[5,2]  6.3098320187849971e-02
    x[5,5]    findWorstP[5,3]  6.3098320187849971e-02
    x[5,5]    findWorstP[5,4]  6.3098320187849971e-02
    x[5,6]    allocateEach[6]  1
    x[5,6]    findWorstP[1,5]  -2.8071562716220220e-02
    x[5,6]    findWorstP[2,5]  -2.0525366984290497e-01
    x[5,6]    findWorstP[3,5]  -9.4344933469805534e-02
    x[5,6]    findWorstP[4,5]  -1.0633569859346985e-01
    x[5,6]    findWorstP[5,1]  1.6523170168783996e-01
    x[5,6]    findWorstP[5,2]  1.6523170168783996e-01
    x[5,6]    findWorstP[5,3]  1.6523170168783996e-01
    x[5,6]    findWorstP[5,4]  1.6523170168783996e-01
    x[5,7]    allocateEach[7]  1
    x[5,7]    findWorstP[1,5]  -1.8467925274290797e-01
    x[5,7]    findWorstP[2,5]  -2.1426731908318311e-01
    x[5,7]    findWorstP[3,5]  -3.8357215967246672e-02
    x[5,7]    findWorstP[4,5]  -1.1115880912098178e-01
    x[5,7]    findWorstP[5,1]  1.9218495996146670e-01
    x[5,7]    findWorstP[5,2]  1.9218495996146670e-01
    x[5,7]    findWorstP[5,3]  1.9218495996146670e-01
    x[5,7]    findWorstP[5,4]  1.9218495996146670e-01
    x[5,8]    allocateEach[8]  1
    x[5,8]    findWorstP[1,5]  -9.6135217949985183e-02
    x[5,8]    findWorstP[2,5]  -1.3095544681946947e-01
    x[5,8]    findWorstP[3,5]  -9.3679631525076759e-02
    x[5,8]    findWorstP[4,5]  -2.1570162369637128e-01
    x[5,8]    findWorstP[5,1]  1.6557288217231625e-02
    x[5,8]    findWorstP[5,2]  1.6557288217231625e-02
    x[5,8]    findWorstP[5,3]  1.6557288217231625e-02
    x[5,8]    findWorstP[5,4]  1.6557288217231625e-02
    MARKER    'MARKER'                 'INTEND'
RHS
    RHS1      allocateEach[1]  1
    RHS1      allocateEach[2]  1
    RHS1      allocateEach[3]  1
    RHS1      allocateEach[4]  1
    RHS1      allocateEach[5]  1
    RHS1      allocateEach[6]  1
    RHS1      allocateEach[7]  1
    RHS1      allocateEach[8]  1
    RHS1      allocateAllCash  1
BOUNDS
 UP BND1      z         1
 MI BND1      cashProportion[1]
 UP BND1      cashProportion[1]  1
 MI BND1      cashProportion[2]
 UP BND1      cashProportion[2]  1
 MI BND1      cashProportion[3]
 UP BND1      cashProportion[3]  1
 MI BND1      cashProportion[4]
 UP BND1      cashProportion[4]  1
 MI BND1      cashProportion[5]
 UP BND1      cashProportion[5]  1
 BV BND1      x[1,1]  
 BV BND1      x[1,2]  
 BV BND1      x[1,3]  
 BV BND1      x[1,4]  
 BV BND1      x[1,5]  
 BV BND1      x[1,6]  
 BV BND1      x[1,7]  
 BV BND1      x[1,8]  
 BV BND1      x[2,1]  
 BV BND1      x[2,2]  
 BV BND1      x[2,3]  
 BV BND1      x[2,4]  
 BV BND1      x[2,5]  
 BV BND1      x[2,6]  
 BV BND1      x[2,7]  
 BV BND1      x[2,8]  
 BV BND1      x[3,1]  
 BV BND1      x[3,2]  
 BV BND1      x[3,3]  
 BV BND1      x[3,4]  
 BV BND1      x[3,5]  
 BV BND1      x[3,6]  
 BV BND1      x[3,7]  
 BV BND1      x[3,8]  
 BV BND1      x[4,1]  
 BV BND1      x[4,2]  
 BV BND1      x[4,3]  
 BV BND1      x[4,4]  
 BV BND1      x[4,5]  
 BV BND1      x[4,6]  
 BV BND1      x[4,7]  
 BV BND1      x[4,8]  
 BV BND1      x[5,1]  
 BV BND1      x[5,2]  
 BV BND1      x[5,3]  
 BV BND1      x[5,4]  
 BV BND1      x[5,5]  
 BV BND1      x[5,6]  
 BV BND1      x[5,7]  
 BV BND1      x[5,8]  
ENDATA
